0 102 102
1 103 107
2 106 111
3 105 114
4 114 113
5 95 107
6 108 108
7 86 107
8 83 106
9 107 107
10 99 108
11 102 104
12 81 103
13 94 101
14 97 102
15 101 103
16 100 101
17 98 100
18 95 99
19 94 97
20 91 99
21 65 99
22 83 96
23 75 93
24 60 90
25 81 89
26 84 87
27 78 85
28 77 84
29 81 85
30 76 84
31 70 81
32 80 81
33 76 80
34 72 78
35 72 77
36 45 74
37 54 73
38 48 71
39 58 68
40 63 72
41 59 70
42 68 69
43 56 68
44 61 67
45 68 69
46 62 69
47 58 66
48 63 63
49 53 63
50 58 58
51 52 53
52 47 50
53 35 52
54 51 51
55 48 48
56 45 45
57 32 45
58 37 44
59 40 45
60 46 46
61 43 44
62 41 44
63 34 41
64 35 39
65 37 41
66 40 41
67 39 41
68 34 39
69 37 40
70 35 37
71 33 35
72 31 33
73 31 32
74 24 32
75 31 33
76 28 32
77 25 31
78 25 31
79 17 30
80 16 32
81 29 32
82 30 30
83 24 27
84 27 28
85 26 27
86 12 26
87 21 24
88 20 24
89 16 22
90 19 22
91 17 22
92 17 21
93 14 17
94 11 14
95 2 10
96 10 10
97 8 8
98 8 7
99 8 7
100 6 6
101 6 6
102 4 6
103 1 3
104 2 2
105 2 1
106 1 0
107 1 1
108 1 1

